13
0 66 80 57 47 79 80 47 67 39 71 44 40
66 0 64 40 61 53 74 87 55 65 20 57 39
80 64 0 70 56 35 23 15 27 52 40 73 73
57 40 70 0 29 52 64 54 65 48 25 56 71
47 61 56 29 0 47 50 83 52 48 58 58 46
79 53 35 52 47 0 23 33 25 81 69 63 74
80 74 23 64 50 23 0 63 52 61 31 21 43
47 87 15 54 83 33 63 0 42 14 20 31 71
67 55 27 65 52 25 52 42 0 22 25 47 68
39 65 52 48 48 81 61 14 22 0 38 25 21
71 20 40 25 58 69 31 20 25 38 0 69 68
44 57 73 56 58 63 21 31 47 25 69 0 43
40 39 73 71 46 74 43 71 68 21 68 43 0
